
  12    4
  10   10   10   10

   0   0   0   0   0   5 2 3 4 6 7 
   3  10  10  10  10   3 10 9 5 
   4  10  10  10  10   3 11 9 8 
   6  10  10  10  10   2 11 5 
   6  10  10  10  10   1 8 
   6  10  10  10  10   1 10 
   2  10  10  10  10   1 9 
   8  10  10  10  10   1 12
   3  10  10  10  10   1 12
   3  10  10  10  10   1 12
   7  10  10  10  10   1 12
   0   0   0   0   0   0 
